# Solution for model r3_t9_m5_4 Batch Number: 1
# Finished Task: 8 / 9
# Makespan: 598.0, Total Distance: 265.0, Total Time: 0.3332
# R O S F Batch
0 0 5 0.0 0.0 -1
1 1 8 0.0 0.0 -1
2 2 3 0.0 0.0 -1
3 2 -1 379.0 416.0 0
4 1 6 470.0 506.0 0
5 0 10 183.0 208.0 0
6 1 -1 532.0 566.0 0
7 0 11 441.0 472.0 0
8 1 4 416.0 441.0 0
9 -1 -1 -1.0 -1.0 0
10 0 7 372.0 407.0 0
11 0 -1 566.0 598.0 0
